(set-logic QF_UF)
(set-option :produce-models true)
(declare-const A Bool)
(declare-const B Bool)
(declare-const C Bool)
(declare-const D Bool)
(declare-const E Bool)
(declare-const x1 Bool)
(declare-const x2 Bool)
(declare-const x3 Bool)
(assert
	(and
		(or (not A)  B (not x1) )
		(or (not x1) (not C) x2 )
            	(or (not x2) (not D) x3 )
	      	(or (not x3) E )
	) 
)
(check-sat)
(get-model)
(exit)
